c *********************************
c * Circuit generated by BenCGen
c *
c * CarrySkipAdder_82_82_82_InOut_G4T
c *
c * Ports with 1 gate(s): 23
c * Ports with 2 gate(s): 454
c * Ports with 4 gate(s): 20
c * Total gates: 497
c *********************************
p cnf 661 1672
1 249 0
-1 -249 0
1 -248 0
249 -248 0
-1 -249 248 0
1 83 -252 0
-1 83 252 0
1 -83 252 0
-1 -83 -252 0
252 248 -165 0
-252 248 165 0
252 -248 165 0
-252 -248 -165 0
248 -253 0
252 -253 0
-248 -252 253 0
83 -254 0
1 -254 0
-83 -1 254 0
-253 251 0
-254 251 0
253 254 -251 0
2 84 -256 0
-2 84 256 0
2 -84 256 0
-2 -84 -256 0
256 251 -166 0
-256 251 166 0
256 -251 166 0
-256 -251 -166 0
251 -257 0
256 -257 0
-251 -256 257 0
84 -258 0
2 -258 0
-84 -2 258 0
-257 255 0
-258 255 0
257 258 -255 0
3 85 -260 0
-3 85 260 0
3 -85 260 0
-3 -85 -260 0
260 255 -167 0
-260 255 167 0
260 -255 167 0
-260 -255 -167 0
255 -261 0
260 -261 0
-255 -260 261 0
85 -262 0
3 -262 0
-85 -3 262 0
-261 259 0
-262 259 0
261 262 -259 0
4 86 -263 0
-4 86 263 0
4 -86 263 0
-4 -86 -263 0
263 259 -168 0
-263 259 168 0
263 -259 168 0
-263 -259 -168 0
259 -264 0
263 -264 0
-259 -263 264 0
86 -265 0
4 -265 0
-86 -4 265 0
-264 250 0
-265 250 0
264 265 -250 0
252 -266 0
256 -266 0
260 -266 0
263 -266 0
-252 -256 -260 -263 266 0
265 -267 0
-265 267 0
248 -268 0
266 -268 0
-248 -266 268 0
-268 269 0
-250 269 0
268 250 -269 0
5 87 -272 0
-5 87 272 0
5 -87 272 0
-5 -87 -272 0
272 269 -169 0
-272 269 169 0
272 -269 169 0
-272 -269 -169 0
269 -273 0
272 -273 0
-269 -272 273 0
87 -274 0
5 -274 0
-87 -5 274 0
-273 271 0
-274 271 0
273 274 -271 0
6 88 -276 0
-6 88 276 0
6 -88 276 0
-6 -88 -276 0
276 271 -170 0
-276 271 170 0
276 -271 170 0
-276 -271 -170 0
271 -277 0
276 -277 0
-271 -276 277 0
88 -278 0
6 -278 0
-88 -6 278 0
-277 275 0
-278 275 0
277 278 -275 0
7 89 -280 0
-7 89 280 0
7 -89 280 0
-7 -89 -280 0
280 275 -171 0
-280 275 171 0
280 -275 171 0
-280 -275 -171 0
275 -281 0
280 -281 0
-275 -280 281 0
89 -282 0
7 -282 0
-89 -7 282 0
-281 279 0
-282 279 0
281 282 -279 0
8 90 -283 0
-8 90 283 0
8 -90 283 0
-8 -90 -283 0
283 279 -172 0
-283 279 172 0
283 -279 172 0
-283 -279 -172 0
279 -284 0
283 -284 0
-279 -283 284 0
90 -285 0
8 -285 0
-90 -8 285 0
-284 270 0
-285 270 0
284 285 -270 0
272 -286 0
276 -286 0
280 -286 0
283 -286 0
-272 -276 -280 -283 286 0
285 -287 0
-285 287 0
269 -288 0
286 -288 0
-269 -286 288 0
-288 289 0
-270 289 0
288 270 -289 0
9 91 -292 0
-9 91 292 0
9 -91 292 0
-9 -91 -292 0
292 289 -173 0
-292 289 173 0
292 -289 173 0
-292 -289 -173 0
289 -293 0
292 -293 0
-289 -292 293 0
91 -294 0
9 -294 0
-91 -9 294 0
-293 291 0
-294 291 0
293 294 -291 0
10 92 -296 0
-10 92 296 0
10 -92 296 0
-10 -92 -296 0
296 291 -174 0
-296 291 174 0
296 -291 174 0
-296 -291 -174 0
291 -297 0
296 -297 0
-291 -296 297 0
92 -298 0
10 -298 0
-92 -10 298 0
-297 295 0
-298 295 0
297 298 -295 0
11 93 -300 0
-11 93 300 0
11 -93 300 0
-11 -93 -300 0
300 295 -175 0
-300 295 175 0
300 -295 175 0
-300 -295 -175 0
295 -301 0
300 -301 0
-295 -300 301 0
93 -302 0
11 -302 0
-93 -11 302 0
-301 299 0
-302 299 0
301 302 -299 0
12 94 -303 0
-12 94 303 0
12 -94 303 0
-12 -94 -303 0
303 299 -176 0
-303 299 176 0
303 -299 176 0
-303 -299 -176 0
299 -304 0
303 -304 0
-299 -303 304 0
94 -305 0
12 -305 0
-94 -12 305 0
-304 290 0
-305 290 0
304 305 -290 0
292 -306 0
296 -306 0
300 -306 0
303 -306 0
-292 -296 -300 -303 306 0
305 -307 0
-305 307 0
289 -308 0
306 -308 0
-289 -306 308 0
-308 309 0
-290 309 0
308 290 -309 0
13 95 -312 0
-13 95 312 0
13 -95 312 0
-13 -95 -312 0
312 309 -177 0
-312 309 177 0
312 -309 177 0
-312 -309 -177 0
309 -313 0
312 -313 0
-309 -312 313 0
95 -314 0
13 -314 0
-95 -13 314 0
-313 311 0
-314 311 0
313 314 -311 0
14 96 -316 0
-14 96 316 0
14 -96 316 0
-14 -96 -316 0
316 311 -178 0
-316 311 178 0
316 -311 178 0
-316 -311 -178 0
311 -317 0
316 -317 0
-311 -316 317 0
96 -318 0
14 -318 0
-96 -14 318 0
-317 315 0
-318 315 0
317 318 -315 0
15 97 -320 0
-15 97 320 0
15 -97 320 0
-15 -97 -320 0
320 315 -179 0
-320 315 179 0
320 -315 179 0
-320 -315 -179 0
315 -321 0
320 -321 0
-315 -320 321 0
97 -322 0
15 -322 0
-97 -15 322 0
-321 319 0
-322 319 0
321 322 -319 0
16 98 -323 0
-16 98 323 0
16 -98 323 0
-16 -98 -323 0
323 319 -180 0
-323 319 180 0
323 -319 180 0
-323 -319 -180 0
319 -324 0
323 -324 0
-319 -323 324 0
98 -325 0
16 -325 0
-98 -16 325 0
-324 310 0
-325 310 0
324 325 -310 0
312 -326 0
316 -326 0
320 -326 0
323 -326 0
-312 -316 -320 -323 326 0
325 -327 0
-325 327 0
309 -328 0
326 -328 0
-309 -326 328 0
-328 329 0
-310 329 0
328 310 -329 0
17 99 -332 0
-17 99 332 0
17 -99 332 0
-17 -99 -332 0
332 329 -181 0
-332 329 181 0
332 -329 181 0
-332 -329 -181 0
329 -333 0
332 -333 0
-329 -332 333 0
99 -334 0
17 -334 0
-99 -17 334 0
-333 331 0
-334 331 0
333 334 -331 0
18 100 -336 0
-18 100 336 0
18 -100 336 0
-18 -100 -336 0
336 331 -182 0
-336 331 182 0
336 -331 182 0
-336 -331 -182 0
331 -337 0
336 -337 0
-331 -336 337 0
100 -338 0
18 -338 0
-100 -18 338 0
-337 335 0
-338 335 0
337 338 -335 0
19 101 -340 0
-19 101 340 0
19 -101 340 0
-19 -101 -340 0
340 335 -183 0
-340 335 183 0
340 -335 183 0
-340 -335 -183 0
335 -341 0
340 -341 0
-335 -340 341 0
101 -342 0
19 -342 0
-101 -19 342 0
-341 339 0
-342 339 0
341 342 -339 0
20 102 -343 0
-20 102 343 0
20 -102 343 0
-20 -102 -343 0
343 339 -184 0
-343 339 184 0
343 -339 184 0
-343 -339 -184 0
339 -344 0
343 -344 0
-339 -343 344 0
102 -345 0
20 -345 0
-102 -20 345 0
-344 330 0
-345 330 0
344 345 -330 0
332 -346 0
336 -346 0
340 -346 0
343 -346 0
-332 -336 -340 -343 346 0
345 -347 0
-345 347 0
329 -348 0
346 -348 0
-329 -346 348 0
-348 349 0
-330 349 0
348 330 -349 0
21 103 -352 0
-21 103 352 0
21 -103 352 0
-21 -103 -352 0
352 349 -185 0
-352 349 185 0
352 -349 185 0
-352 -349 -185 0
349 -353 0
352 -353 0
-349 -352 353 0
103 -354 0
21 -354 0
-103 -21 354 0
-353 351 0
-354 351 0
353 354 -351 0
22 104 -356 0
-22 104 356 0
22 -104 356 0
-22 -104 -356 0
356 351 -186 0
-356 351 186 0
356 -351 186 0
-356 -351 -186 0
351 -357 0
356 -357 0
-351 -356 357 0
104 -358 0
22 -358 0
-104 -22 358 0
-357 355 0
-358 355 0
357 358 -355 0
23 105 -360 0
-23 105 360 0
23 -105 360 0
-23 -105 -360 0
360 355 -187 0
-360 355 187 0
360 -355 187 0
-360 -355 -187 0
355 -361 0
360 -361 0
-355 -360 361 0
105 -362 0
23 -362 0
-105 -23 362 0
-361 359 0
-362 359 0
361 362 -359 0
24 106 -363 0
-24 106 363 0
24 -106 363 0
-24 -106 -363 0
363 359 -188 0
-363 359 188 0
363 -359 188 0
-363 -359 -188 0
359 -364 0
363 -364 0
-359 -363 364 0
106 -365 0
24 -365 0
-106 -24 365 0
-364 350 0
-365 350 0
364 365 -350 0
352 -366 0
356 -366 0
360 -366 0
363 -366 0
-352 -356 -360 -363 366 0
365 -367 0
-365 367 0
349 -368 0
366 -368 0
-349 -366 368 0
-368 369 0
-350 369 0
368 350 -369 0
25 107 -372 0
-25 107 372 0
25 -107 372 0
-25 -107 -372 0
372 369 -189 0
-372 369 189 0
372 -369 189 0
-372 -369 -189 0
369 -373 0
372 -373 0
-369 -372 373 0
107 -374 0
25 -374 0
-107 -25 374 0
-373 371 0
-374 371 0
373 374 -371 0
26 108 -376 0
-26 108 376 0
26 -108 376 0
-26 -108 -376 0
376 371 -190 0
-376 371 190 0
376 -371 190 0
-376 -371 -190 0
371 -377 0
376 -377 0
-371 -376 377 0
108 -378 0
26 -378 0
-108 -26 378 0
-377 375 0
-378 375 0
377 378 -375 0
27 109 -380 0
-27 109 380 0
27 -109 380 0
-27 -109 -380 0
380 375 -191 0
-380 375 191 0
380 -375 191 0
-380 -375 -191 0
375 -381 0
380 -381 0
-375 -380 381 0
109 -382 0
27 -382 0
-109 -27 382 0
-381 379 0
-382 379 0
381 382 -379 0
28 110 -383 0
-28 110 383 0
28 -110 383 0
-28 -110 -383 0
383 379 -192 0
-383 379 192 0
383 -379 192 0
-383 -379 -192 0
379 -384 0
383 -384 0
-379 -383 384 0
110 -385 0
28 -385 0
-110 -28 385 0
-384 370 0
-385 370 0
384 385 -370 0
372 -386 0
376 -386 0
380 -386 0
383 -386 0
-372 -376 -380 -383 386 0
385 -387 0
-385 387 0
369 -388 0
386 -388 0
-369 -386 388 0
-388 389 0
-370 389 0
388 370 -389 0
29 111 -392 0
-29 111 392 0
29 -111 392 0
-29 -111 -392 0
392 389 -193 0
-392 389 193 0
392 -389 193 0
-392 -389 -193 0
389 -393 0
392 -393 0
-389 -392 393 0
111 -394 0
29 -394 0
-111 -29 394 0
-393 391 0
-394 391 0
393 394 -391 0
30 112 -396 0
-30 112 396 0
30 -112 396 0
-30 -112 -396 0
396 391 -194 0
-396 391 194 0
396 -391 194 0
-396 -391 -194 0
391 -397 0
396 -397 0
-391 -396 397 0
112 -398 0
30 -398 0
-112 -30 398 0
-397 395 0
-398 395 0
397 398 -395 0
31 113 -400 0
-31 113 400 0
31 -113 400 0
-31 -113 -400 0
400 395 -195 0
-400 395 195 0
400 -395 195 0
-400 -395 -195 0
395 -401 0
400 -401 0
-395 -400 401 0
113 -402 0
31 -402 0
-113 -31 402 0
-401 399 0
-402 399 0
401 402 -399 0
32 114 -403 0
-32 114 403 0
32 -114 403 0
-32 -114 -403 0
403 399 -196 0
-403 399 196 0
403 -399 196 0
-403 -399 -196 0
399 -404 0
403 -404 0
-399 -403 404 0
114 -405 0
32 -405 0
-114 -32 405 0
-404 390 0
-405 390 0
404 405 -390 0
392 -406 0
396 -406 0
400 -406 0
403 -406 0
-392 -396 -400 -403 406 0
405 -407 0
-405 407 0
389 -408 0
406 -408 0
-389 -406 408 0
-408 409 0
-390 409 0
408 390 -409 0
33 115 -412 0
-33 115 412 0
33 -115 412 0
-33 -115 -412 0
412 409 -197 0
-412 409 197 0
412 -409 197 0
-412 -409 -197 0
409 -413 0
412 -413 0
-409 -412 413 0
115 -414 0
33 -414 0
-115 -33 414 0
-413 411 0
-414 411 0
413 414 -411 0
34 116 -416 0
-34 116 416 0
34 -116 416 0
-34 -116 -416 0
416 411 -198 0
-416 411 198 0
416 -411 198 0
-416 -411 -198 0
411 -417 0
416 -417 0
-411 -416 417 0
116 -418 0
34 -418 0
-116 -34 418 0
-417 415 0
-418 415 0
417 418 -415 0
35 117 -420 0
-35 117 420 0
35 -117 420 0
-35 -117 -420 0
420 415 -199 0
-420 415 199 0
420 -415 199 0
-420 -415 -199 0
415 -421 0
420 -421 0
-415 -420 421 0
117 -422 0
35 -422 0
-117 -35 422 0
-421 419 0
-422 419 0
421 422 -419 0
36 118 -423 0
-36 118 423 0
36 -118 423 0
-36 -118 -423 0
423 419 -200 0
-423 419 200 0
423 -419 200 0
-423 -419 -200 0
419 -424 0
423 -424 0
-419 -423 424 0
118 -425 0
36 -425 0
-118 -36 425 0
-424 410 0
-425 410 0
424 425 -410 0
412 -426 0
416 -426 0
420 -426 0
423 -426 0
-412 -416 -420 -423 426 0
425 -427 0
-425 427 0
409 -428 0
426 -428 0
-409 -426 428 0
-428 429 0
-410 429 0
428 410 -429 0
37 119 -432 0
-37 119 432 0
37 -119 432 0
-37 -119 -432 0
432 429 -201 0
-432 429 201 0
432 -429 201 0
-432 -429 -201 0
429 -433 0
432 -433 0
-429 -432 433 0
119 -434 0
37 -434 0
-119 -37 434 0
-433 431 0
-434 431 0
433 434 -431 0
38 120 -436 0
-38 120 436 0
38 -120 436 0
-38 -120 -436 0
436 431 -202 0
-436 431 202 0
436 -431 202 0
-436 -431 -202 0
431 -437 0
436 -437 0
-431 -436 437 0
120 -438 0
38 -438 0
-120 -38 438 0
-437 435 0
-438 435 0
437 438 -435 0
39 121 -440 0
-39 121 440 0
39 -121 440 0
-39 -121 -440 0
440 435 -203 0
-440 435 203 0
440 -435 203 0
-440 -435 -203 0
435 -441 0
440 -441 0
-435 -440 441 0
121 -442 0
39 -442 0
-121 -39 442 0
-441 439 0
-442 439 0
441 442 -439 0
40 122 -443 0
-40 122 443 0
40 -122 443 0
-40 -122 -443 0
443 439 -204 0
-443 439 204 0
443 -439 204 0
-443 -439 -204 0
439 -444 0
443 -444 0
-439 -443 444 0
122 -445 0
40 -445 0
-122 -40 445 0
-444 430 0
-445 430 0
444 445 -430 0
432 -446 0
436 -446 0
440 -446 0
443 -446 0
-432 -436 -440 -443 446 0
445 -447 0
-445 447 0
429 -448 0
446 -448 0
-429 -446 448 0
-448 449 0
-430 449 0
448 430 -449 0
41 123 -452 0
-41 123 452 0
41 -123 452 0
-41 -123 -452 0
452 449 -205 0
-452 449 205 0
452 -449 205 0
-452 -449 -205 0
449 -453 0
452 -453 0
-449 -452 453 0
123 -454 0
41 -454 0
-123 -41 454 0
-453 451 0
-454 451 0
453 454 -451 0
42 124 -456 0
-42 124 456 0
42 -124 456 0
-42 -124 -456 0
456 451 -206 0
-456 451 206 0
456 -451 206 0
-456 -451 -206 0
451 -457 0
456 -457 0
-451 -456 457 0
124 -458 0
42 -458 0
-124 -42 458 0
-457 455 0
-458 455 0
457 458 -455 0
43 125 -460 0
-43 125 460 0
43 -125 460 0
-43 -125 -460 0
460 455 -207 0
-460 455 207 0
460 -455 207 0
-460 -455 -207 0
455 -461 0
460 -461 0
-455 -460 461 0
125 -462 0
43 -462 0
-125 -43 462 0
-461 459 0
-462 459 0
461 462 -459 0
44 126 -463 0
-44 126 463 0
44 -126 463 0
-44 -126 -463 0
463 459 -208 0
-463 459 208 0
463 -459 208 0
-463 -459 -208 0
459 -464 0
463 -464 0
-459 -463 464 0
126 -465 0
44 -465 0
-126 -44 465 0
-464 450 0
-465 450 0
464 465 -450 0
452 -466 0
456 -466 0
460 -466 0
463 -466 0
-452 -456 -460 -463 466 0
465 -467 0
-465 467 0
449 -468 0
466 -468 0
-449 -466 468 0
-468 469 0
-450 469 0
468 450 -469 0
45 127 -472 0
-45 127 472 0
45 -127 472 0
-45 -127 -472 0
472 469 -209 0
-472 469 209 0
472 -469 209 0
-472 -469 -209 0
469 -473 0
472 -473 0
-469 -472 473 0
127 -474 0
45 -474 0
-127 -45 474 0
-473 471 0
-474 471 0
473 474 -471 0
46 128 -476 0
-46 128 476 0
46 -128 476 0
-46 -128 -476 0
476 471 -210 0
-476 471 210 0
476 -471 210 0
-476 -471 -210 0
471 -477 0
476 -477 0
-471 -476 477 0
128 -478 0
46 -478 0
-128 -46 478 0
-477 475 0
-478 475 0
477 478 -475 0
47 129 -480 0
-47 129 480 0
47 -129 480 0
-47 -129 -480 0
480 475 -211 0
-480 475 211 0
480 -475 211 0
-480 -475 -211 0
475 -481 0
480 -481 0
-475 -480 481 0
129 -482 0
47 -482 0
-129 -47 482 0
-481 479 0
-482 479 0
481 482 -479 0
48 130 -483 0
-48 130 483 0
48 -130 483 0
-48 -130 -483 0
483 479 -212 0
-483 479 212 0
483 -479 212 0
-483 -479 -212 0
479 -484 0
483 -484 0
-479 -483 484 0
130 -485 0
48 -485 0
-130 -48 485 0
-484 470 0
-485 470 0
484 485 -470 0
472 -486 0
476 -486 0
480 -486 0
483 -486 0
-472 -476 -480 -483 486 0
485 -487 0
-485 487 0
469 -488 0
486 -488 0
-469 -486 488 0
-488 489 0
-470 489 0
488 470 -489 0
49 131 -492 0
-49 131 492 0
49 -131 492 0
-49 -131 -492 0
492 489 -213 0
-492 489 213 0
492 -489 213 0
-492 -489 -213 0
489 -493 0
492 -493 0
-489 -492 493 0
131 -494 0
49 -494 0
-131 -49 494 0
-493 491 0
-494 491 0
493 494 -491 0
50 132 -496 0
-50 132 496 0
50 -132 496 0
-50 -132 -496 0
496 491 -214 0
-496 491 214 0
496 -491 214 0
-496 -491 -214 0
491 -497 0
496 -497 0
-491 -496 497 0
132 -498 0
50 -498 0
-132 -50 498 0
-497 495 0
-498 495 0
497 498 -495 0
51 133 -500 0
-51 133 500 0
51 -133 500 0
-51 -133 -500 0
500 495 -215 0
-500 495 215 0
500 -495 215 0
-500 -495 -215 0
495 -501 0
500 -501 0
-495 -500 501 0
133 -502 0
51 -502 0
-133 -51 502 0
-501 499 0
-502 499 0
501 502 -499 0
52 134 -503 0
-52 134 503 0
52 -134 503 0
-52 -134 -503 0
503 499 -216 0
-503 499 216 0
503 -499 216 0
-503 -499 -216 0
499 -504 0
503 -504 0
-499 -503 504 0
134 -505 0
52 -505 0
-134 -52 505 0
-504 490 0
-505 490 0
504 505 -490 0
492 -506 0
496 -506 0
500 -506 0
503 -506 0
-492 -496 -500 -503 506 0
505 -507 0
-505 507 0
489 -508 0
506 -508 0
-489 -506 508 0
-508 509 0
-490 509 0
508 490 -509 0
53 135 -512 0
-53 135 512 0
53 -135 512 0
-53 -135 -512 0
512 509 -217 0
-512 509 217 0
512 -509 217 0
-512 -509 -217 0
509 -513 0
512 -513 0
-509 -512 513 0
135 -514 0
53 -514 0
-135 -53 514 0
-513 511 0
-514 511 0
513 514 -511 0
54 136 -516 0
-54 136 516 0
54 -136 516 0
-54 -136 -516 0
516 511 -218 0
-516 511 218 0
516 -511 218 0
-516 -511 -218 0
511 -517 0
516 -517 0
-511 -516 517 0
136 -518 0
54 -518 0
-136 -54 518 0
-517 515 0
-518 515 0
517 518 -515 0
55 137 -520 0
-55 137 520 0
55 -137 520 0
-55 -137 -520 0
520 515 -219 0
-520 515 219 0
520 -515 219 0
-520 -515 -219 0
515 -521 0
520 -521 0
-515 -520 521 0
137 -522 0
55 -522 0
-137 -55 522 0
-521 519 0
-522 519 0
521 522 -519 0
56 138 -523 0
-56 138 523 0
56 -138 523 0
-56 -138 -523 0
523 519 -220 0
-523 519 220 0
523 -519 220 0
-523 -519 -220 0
519 -524 0
523 -524 0
-519 -523 524 0
138 -525 0
56 -525 0
-138 -56 525 0
-524 510 0
-525 510 0
524 525 -510 0
512 -526 0
516 -526 0
520 -526 0
523 -526 0
-512 -516 -520 -523 526 0
525 -527 0
-525 527 0
509 -528 0
526 -528 0
-509 -526 528 0
-528 529 0
-510 529 0
528 510 -529 0
57 139 -532 0
-57 139 532 0
57 -139 532 0
-57 -139 -532 0
532 529 -221 0
-532 529 221 0
532 -529 221 0
-532 -529 -221 0
529 -533 0
532 -533 0
-529 -532 533 0
139 -534 0
57 -534 0
-139 -57 534 0
-533 531 0
-534 531 0
533 534 -531 0
58 140 -536 0
-58 140 536 0
58 -140 536 0
-58 -140 -536 0
536 531 -222 0
-536 531 222 0
536 -531 222 0
-536 -531 -222 0
531 -537 0
536 -537 0
-531 -536 537 0
140 -538 0
58 -538 0
-140 -58 538 0
-537 535 0
-538 535 0
537 538 -535 0
59 141 -540 0
-59 141 540 0
59 -141 540 0
-59 -141 -540 0
540 535 -223 0
-540 535 223 0
540 -535 223 0
-540 -535 -223 0
535 -541 0
540 -541 0
-535 -540 541 0
141 -542 0
59 -542 0
-141 -59 542 0
-541 539 0
-542 539 0
541 542 -539 0
60 142 -543 0
-60 142 543 0
60 -142 543 0
-60 -142 -543 0
543 539 -224 0
-543 539 224 0
543 -539 224 0
-543 -539 -224 0
539 -544 0
543 -544 0
-539 -543 544 0
142 -545 0
60 -545 0
-142 -60 545 0
-544 530 0
-545 530 0
544 545 -530 0
532 -546 0
536 -546 0
540 -546 0
543 -546 0
-532 -536 -540 -543 546 0
545 -547 0
-545 547 0
529 -548 0
546 -548 0
-529 -546 548 0
-548 549 0
-530 549 0
548 530 -549 0
61 143 -552 0
-61 143 552 0
61 -143 552 0
-61 -143 -552 0
552 549 -225 0
-552 549 225 0
552 -549 225 0
-552 -549 -225 0
549 -553 0
552 -553 0
-549 -552 553 0
143 -554 0
61 -554 0
-143 -61 554 0
-553 551 0
-554 551 0
553 554 -551 0
62 144 -556 0
-62 144 556 0
62 -144 556 0
-62 -144 -556 0
556 551 -226 0
-556 551 226 0
556 -551 226 0
-556 -551 -226 0
551 -557 0
556 -557 0
-551 -556 557 0
144 -558 0
62 -558 0
-144 -62 558 0
-557 555 0
-558 555 0
557 558 -555 0
63 145 -560 0
-63 145 560 0
63 -145 560 0
-63 -145 -560 0
560 555 -227 0
-560 555 227 0
560 -555 227 0
-560 -555 -227 0
555 -561 0
560 -561 0
-555 -560 561 0
145 -562 0
63 -562 0
-145 -63 562 0
-561 559 0
-562 559 0
561 562 -559 0
64 146 -563 0
-64 146 563 0
64 -146 563 0
-64 -146 -563 0
563 559 -228 0
-563 559 228 0
563 -559 228 0
-563 -559 -228 0
559 -564 0
563 -564 0
-559 -563 564 0
146 -565 0
64 -565 0
-146 -64 565 0
-564 550 0
-565 550 0
564 565 -550 0
552 -566 0
556 -566 0
560 -566 0
563 -566 0
-552 -556 -560 -563 566 0
565 -567 0
-565 567 0
549 -568 0
566 -568 0
-549 -566 568 0
-568 569 0
-550 569 0
568 550 -569 0
65 147 -572 0
-65 147 572 0
65 -147 572 0
-65 -147 -572 0
572 569 -229 0
-572 569 229 0
572 -569 229 0
-572 -569 -229 0
569 -573 0
572 -573 0
-569 -572 573 0
147 -574 0
65 -574 0
-147 -65 574 0
-573 571 0
-574 571 0
573 574 -571 0
66 148 -576 0
-66 148 576 0
66 -148 576 0
-66 -148 -576 0
576 571 -230 0
-576 571 230 0
576 -571 230 0
-576 -571 -230 0
571 -577 0
576 -577 0
-571 -576 577 0
148 -578 0
66 -578 0
-148 -66 578 0
-577 575 0
-578 575 0
577 578 -575 0
67 149 -580 0
-67 149 580 0
67 -149 580 0
-67 -149 -580 0
580 575 -231 0
-580 575 231 0
580 -575 231 0
-580 -575 -231 0
575 -581 0
580 -581 0
-575 -580 581 0
149 -582 0
67 -582 0
-149 -67 582 0
-581 579 0
-582 579 0
581 582 -579 0
68 150 -583 0
-68 150 583 0
68 -150 583 0
-68 -150 -583 0
583 579 -232 0
-583 579 232 0
583 -579 232 0
-583 -579 -232 0
579 -584 0
583 -584 0
-579 -583 584 0
150 -585 0
68 -585 0
-150 -68 585 0
-584 570 0
-585 570 0
584 585 -570 0
572 -586 0
576 -586 0
580 -586 0
583 -586 0
-572 -576 -580 -583 586 0
585 -587 0
-585 587 0
569 -588 0
586 -588 0
-569 -586 588 0
-588 589 0
-570 589 0
588 570 -589 0
69 151 -592 0
-69 151 592 0
69 -151 592 0
-69 -151 -592 0
592 589 -233 0
-592 589 233 0
592 -589 233 0
-592 -589 -233 0
589 -593 0
592 -593 0
-589 -592 593 0
151 -594 0
69 -594 0
-151 -69 594 0
-593 591 0
-594 591 0
593 594 -591 0
70 152 -596 0
-70 152 596 0
70 -152 596 0
-70 -152 -596 0
596 591 -234 0
-596 591 234 0
596 -591 234 0
-596 -591 -234 0
591 -597 0
596 -597 0
-591 -596 597 0
152 -598 0
70 -598 0
-152 -70 598 0
-597 595 0
-598 595 0
597 598 -595 0
71 153 -600 0
-71 153 600 0
71 -153 600 0
-71 -153 -600 0
600 595 -235 0
-600 595 235 0
600 -595 235 0
-600 -595 -235 0
595 -601 0
600 -601 0
-595 -600 601 0
153 -602 0
71 -602 0
-153 -71 602 0
-601 599 0
-602 599 0
601 602 -599 0
72 154 -603 0
-72 154 603 0
72 -154 603 0
-72 -154 -603 0
603 599 -236 0
-603 599 236 0
603 -599 236 0
-603 -599 -236 0
599 -604 0
603 -604 0
-599 -603 604 0
154 -605 0
72 -605 0
-154 -72 605 0
-604 590 0
-605 590 0
604 605 -590 0
592 -606 0
596 -606 0
600 -606 0
603 -606 0
-592 -596 -600 -603 606 0
605 -607 0
-605 607 0
589 -608 0
606 -608 0
-589 -606 608 0
-608 609 0
-590 609 0
608 590 -609 0
73 155 -612 0
-73 155 612 0
73 -155 612 0
-73 -155 -612 0
612 609 -237 0
-612 609 237 0
612 -609 237 0
-612 -609 -237 0
609 -613 0
612 -613 0
-609 -612 613 0
155 -614 0
73 -614 0
-155 -73 614 0
-613 611 0
-614 611 0
613 614 -611 0
74 156 -616 0
-74 156 616 0
74 -156 616 0
-74 -156 -616 0
616 611 -238 0
-616 611 238 0
616 -611 238 0
-616 -611 -238 0
611 -617 0
616 -617 0
-611 -616 617 0
156 -618 0
74 -618 0
-156 -74 618 0
-617 615 0
-618 615 0
617 618 -615 0
75 157 -620 0
-75 157 620 0
75 -157 620 0
-75 -157 -620 0
620 615 -239 0
-620 615 239 0
620 -615 239 0
-620 -615 -239 0
615 -621 0
620 -621 0
-615 -620 621 0
157 -622 0
75 -622 0
-157 -75 622 0
-621 619 0
-622 619 0
621 622 -619 0
76 158 -623 0
-76 158 623 0
76 -158 623 0
-76 -158 -623 0
623 619 -240 0
-623 619 240 0
623 -619 240 0
-623 -619 -240 0
619 -624 0
623 -624 0
-619 -623 624 0
158 -625 0
76 -625 0
-158 -76 625 0
-624 610 0
-625 610 0
624 625 -610 0
612 -626 0
616 -626 0
620 -626 0
623 -626 0
-612 -616 -620 -623 626 0
625 -627 0
-625 627 0
609 -628 0
626 -628 0
-609 -626 628 0
-628 629 0
-610 629 0
628 610 -629 0
77 159 -632 0
-77 159 632 0
77 -159 632 0
-77 -159 -632 0
632 629 -241 0
-632 629 241 0
632 -629 241 0
-632 -629 -241 0
629 -633 0
632 -633 0
-629 -632 633 0
159 -634 0
77 -634 0
-159 -77 634 0
-633 631 0
-634 631 0
633 634 -631 0
78 160 -636 0
-78 160 636 0
78 -160 636 0
-78 -160 -636 0
636 631 -242 0
-636 631 242 0
636 -631 242 0
-636 -631 -242 0
631 -637 0
636 -637 0
-631 -636 637 0
160 -638 0
78 -638 0
-160 -78 638 0
-637 635 0
-638 635 0
637 638 -635 0
79 161 -640 0
-79 161 640 0
79 -161 640 0
-79 -161 -640 0
640 635 -243 0
-640 635 243 0
640 -635 243 0
-640 -635 -243 0
635 -641 0
640 -641 0
-635 -640 641 0
161 -642 0
79 -642 0
-161 -79 642 0
-641 639 0
-642 639 0
641 642 -639 0
80 162 -643 0
-80 162 643 0
80 -162 643 0
-80 -162 -643 0
643 639 -244 0
-643 639 244 0
643 -639 244 0
-643 -639 -244 0
639 -644 0
643 -644 0
-639 -643 644 0
162 -645 0
80 -645 0
-162 -80 645 0
-644 630 0
-645 630 0
644 645 -630 0
632 -646 0
636 -646 0
640 -646 0
643 -646 0
-632 -636 -640 -643 646 0
645 -647 0
-645 647 0
629 -648 0
646 -648 0
-629 -646 648 0
-648 649 0
-630 649 0
648 630 -649 0
81 163 -652 0
-81 163 652 0
81 -163 652 0
-81 -163 -652 0
652 649 -245 0
-652 649 245 0
652 -649 245 0
-652 -649 -245 0
649 -653 0
652 -653 0
-649 -652 653 0
163 -654 0
81 -654 0
-163 -81 654 0
-653 651 0
-654 651 0
653 654 -651 0
82 164 -655 0
-82 164 655 0
82 -164 655 0
-82 -164 -655 0
655 651 -246 0
-655 651 246 0
655 -651 246 0
-655 -651 -246 0
651 -656 0
655 -656 0
-651 -655 656 0
164 -657 0
82 -657 0
-164 -82 657 0
-656 650 0
-657 650 0
656 657 -650 0
652 -658 0
655 -658 0
-652 -655 658 0
657 -659 0
-657 659 0
649 -660 0
658 -660 0
-649 -658 660 0
-660 661 0
-650 661 0
660 650 -661 0
661 -247 0
-661 247 0
